instances/in_30_15_9_1.lp
#const n = 30.
#const k = 15.
#const h = 9.
tile(1,6,10).
tile(2,14,10).
tile(3,11,3).
tile(4,3,3).
tile(5,7,2).
tile(6,8,12).
tile(7,15,15).
tile(8,12,5).
tile(9,12,2).
tile(10,9,13).
tile(11,1,14).
tile(12,1,6).
tile(13,10,9).
tile(14,5,3).
tile(15,13,13).
tile(16,13,12).
tile(17,13,6).
tile(18,3,8).
tile(19,14,15).
tile(20,15,3).
tile(21,13,5).
tile(22,9,5).
tile(23,12,12).
tile(24,12,9).
tile(25,8,8).
tile(26,9,4).
tile(27,12,1).
tile(28,14,8).
tile(29,8,11).
tile(30,15,10).
