minizinc/input/in_30_15_9_1.dzn
n = 30;
k = 15;
h = 9;
tiles = array2d(1..n, 1..2,
[ 6,10
, 14,10
, 11,3
, 3,3
, 7,2
, 8,12
, 15,15
, 12,5
, 12,2
, 9,13
, 1,14
, 1,6
, 10,9
, 5,3
, 13,13
, 13,12
, 13,6
, 3,8
, 14,15
, 15,3
, 13,5
, 9,5
, 12,12
, 12,9
, 8,8
, 9,4
, 12,1
, 14,8
, 8,11
, 15,10
]);